Reading model...
...model read.
creating competitive generators file...
...competitive generators recorded.
Loading data...
.. real-time data read.
Compiling instance...
...instance created.
Creating Offer Mitigation (model will solve as dispatch if TRUE)...
NOTE: storage offers will not be mitigated
...storage offer mitigation file created
Converting model to MPEC...
...converted
NOTE: initial MIP solve with only storage competitive to get feasible solution
Solving...

Welcome to IBM(R) ILOG(R) CPLEX(R) Interactive Optimizer 12.9.0.0
  with Simplex, Mixed Integer & Barrier Optimizers
5725-A06 5725-A29 5724-Y48 5724-Y49 5724-Y54 5724-Y55 5655-Y21
Copyright IBM Corp. 1988, 2019.  All Rights Reserved.

Type 'help' for a list of available commands.
Type 'help' followed by a command name for more
information on commands.

CPLEX> Logfile 'cplex.log' closed.
Logfile 'C:\Users\llavin\Desktop\test826\logs\tmpw748fmn5.cplex.log' open.
CPLEX> New value for parallel optimization mode: -1
CPLEX> New value for emphasis for MIP optimization: 1
CPLEX> New value for mixed integer optimality gap tolerance: 0.01
CPLEX> New value for integrality tolerance: 1e-12
CPLEX> New value for deterministic time limit in ticks: 65000
CPLEX> Problem 'C:\Users\llavin\Desktop\test826\logs\tmpuz7td02o.pyomo.lp' read.
Read time = 0.47 sec. (28.91 ticks)
CPLEX> Problem name         : C:\Users\llavin\Desktop\test826\logs\tmpuz7td02o.pyomo.lp
Objective sense      : Maximize
Variables            :  107803  [Nneg: 1,  Box: 44062,  Free: 8928,
                                 Binary: 54812]
Objective nonzeros   :   17280
Linear constraints   :  246963  [Less: 82886,  Greater: 118460,  Equal: 45617]
  Nonzeros           :  620741
  RHS nonzeros       :  134923

Variables            : Min LB: -5000.000        Max UB: 1000000.       
Objective nonzeros   : Min   : 0.01666667       Max   : 180.0000       
Linear constraints   :
  Nonzeros           : Min   : 0.001000000      Max   : 1000000.       
  RHS nonzeros       : Min   : 0.001000000      Max   : 1000000.       
CPLEX> CPXPARAM_Parallel                                -1
CPXPARAM_Emphasis_MIP                            1
CPXPARAM_DetTimeLimit                            65000
CPXPARAM_MIP_Tolerances_MIPGap                   0.01
CPXPARAM_MIP_Tolerances_Integrality              9.9999999999999998e-13
Tried aggregator 3 times.
MIP Presolve eliminated 182095 rows and 41822 columns.
MIP Presolve added 6000 rows and 0 columns.
MIP Presolve modified 49597 coefficients.
Aggregator did 25695 substitutions.
Reduced MIP has 45173 rows, 38654 columns, and 135251 nonzeros.
Reduced MIP has 15162 binaries, 0 generals, 0 SOSs, and 0 indicators.
Presolve time = 0.53 sec. (369.62 ticks)
Probing fixed 860 vars, tightened 16367 bounds.
Probing time = 0.36 sec. (17.00 ticks)
Tried aggregator 2 times.
MIP Presolve eliminated 1912 rows and 1720 columns.
MIP Presolve modified 5329 coefficients.
Aggregator did 129 substitutions.
Reduced MIP has 43132 rows, 36805 columns, and 129320 nonzeros.
Reduced MIP has 14302 binaries, 0 generals, 0 SOSs, and 0 indicators.
Presolve time = 0.22 sec. (210.82 ticks)
Probing fixed 1 vars, tightened 536 bounds.
Probing time = 0.47 sec. (17.00 ticks)
Clique table members: 76861.
MIP emphasis: integer feasibility.
MIP search method: dynamic search.
Parallel mode: opportunistic, using up to 32 threads.
Root relaxation solution time = 0.86 sec. (1808.94 ticks)

        Nodes                                         Cuts/
   Node  Left     Objective  IInf  Best Integer    Best Bound    ItCnt     Gap

      0     0        0.0232   459                      0.0232     9615         
      0     0        0.0232     2                 MIRcuts: 91     9616         
*     0+    0                            0.0232        0.0232            -0.23%
      0     0        cutoff              0.0232        0.0232     9616   -0.23%
Elapsed time = 3.55 sec. (3288.52 ticks, tree = 0.01 MB, solutions = 1)

Root node processing (before b&c):
  Real time             =    3.56 sec. (3292.33 ticks)
Parallel b&c, 32 threads:
  Real time             =    0.00 sec. (0.00 ticks)
  Sync time (average)   =    0.00 sec.
  Wait time (average)   =    0.00 sec.
                          ------------
Total (root+branch&cut) =    3.56 sec. (3292.33 ticks)

Solution pool: 1 solution saved.

MIP - Integer optimal solution:  Objective =  2.3217427021e-02
Solution time =    3.58 sec.  Iterations = 9616  Nodes = 0
Deterministic time = 3292.64 ticks  (920.25 ticks/sec)

CPLEX> Incumbent solution written to file 'C:\Users\llavin\Desktop\test826\logs\tmps7dunen7.cplex.sol'.
CPLEX> NOTE: no warmstart specified for MIP iteration, default behavior is true
NOTE: resolving with all competitive generators using storage-only solution to warmstart
Solving...

Welcome to IBM(R) ILOG(R) CPLEX(R) Interactive Optimizer 12.9.0.0
  with Simplex, Mixed Integer & Barrier Optimizers
5725-A06 5725-A29 5724-Y48 5724-Y49 5724-Y54 5724-Y55 5655-Y21
Copyright IBM Corp. 1988, 2019.  All Rights Reserved.

Type 'help' for a list of available commands.
Type 'help' followed by a command name for more
information on commands.

CPLEX> Logfile 'cplex.log' closed.
Logfile 'C:\Users\llavin\Desktop\test826\logs\tmpxcp2gc23.cplex.log' open.
CPLEX> New value for parallel optimization mode: -1
CPLEX> New value for emphasis for MIP optimization: 1
CPLEX> New value for mixed integer optimality gap tolerance: 0.01
CPLEX> New value for integrality tolerance: 1e-12
CPLEX> New value for deterministic time limit in ticks: 65000
CPLEX> Problem 'C:\Users\llavin\Desktop\test826\logs\tmp5c_dx6jz.pyomo.lp' read.
Read time = 0.47 sec. (28.95 ticks)
CPLEX> MIP start file 'C:\Users\llavin\Desktop\test826\logs\tmpvqd83q3t.cplex.mst' read.
CPLEX> Problem name         : C:\Users\llavin\Desktop\test826\logs\tmp5c_dx6jz.pyomo.lp
Objective sense      : Maximize
Variables            :  109243  [Nneg: 1,  Box: 45502,  Free: 8928,
                                 Binary: 54812]
Objective nonzeros   :   18672
Linear constraints   :  246963  [Less: 82886,  Greater: 118460,  Equal: 45617]
  Nonzeros           :  620741
  RHS nonzeros       :  134923

Variables            : Min LB: -5000.000        Max UB: 1000000.       
Objective nonzeros   : Min   : 0.01666667       Max   : 180.0000       
Linear constraints   :
  Nonzeros           : Min   : 0.001000000      Max   : 1000000.       
  RHS nonzeros       : Min   : 0.001000000      Max   : 1000000.       
CPLEX> CPXPARAM_Parallel                                -1
CPXPARAM_Emphasis_MIP                            1
CPXPARAM_DetTimeLimit                            65000
CPXPARAM_MIP_Tolerances_MIPGap                   0.01
CPXPARAM_MIP_Tolerances_Integrality              9.9999999999999998e-13
Warning:  No solution found from 1 MIP starts.
Retaining values of one MIP start for possible repair.
Tried aggregator 3 times.
MIP Presolve eliminated 182095 rows and 43262 columns.
MIP Presolve added 6000 rows and 0 columns.
MIP Presolve modified 49597 coefficients.
Aggregator did 25695 substitutions.
Reduced MIP has 45173 rows, 38654 columns, and 135251 nonzeros.
Reduced MIP has 15162 binaries, 0 generals, 0 SOSs, and 0 indicators.
Presolve time = 0.55 sec. (370.37 ticks)
Probing fixed 860 vars, tightened 16367 bounds.
Probing time = 0.33 sec. (17.00 ticks)
Tried aggregator 2 times.
MIP Presolve eliminated 1912 rows and 1720 columns.
MIP Presolve modified 5329 coefficients.
Aggregator did 129 substitutions.
Reduced MIP has 43132 rows, 36805 columns, and 129320 nonzeros.
Reduced MIP has 14302 binaries, 0 generals, 0 SOSs, and 0 indicators.
Presolve time = 0.19 sec. (210.83 ticks)
Probing fixed 1 vars, tightened 536 bounds.
Probing time = 0.45 sec. (17.00 ticks)
Clique table members: 76915.
MIP emphasis: integer feasibility.
MIP search method: dynamic search.
Parallel mode: opportunistic, using up to 32 threads.
Root relaxation solution time = 1.02 sec. (1803.64 ticks)

        Nodes                                         Cuts/
   Node  Left     Objective  IInf  Best Integer    Best Bound    ItCnt     Gap

      0     0    40828.1849   838                  40828.1849    12143         
      0     0    40399.5253   555                   Cuts: 685    12819         
      0     0    40207.7105   558                   Cuts: 230    13126         
      0     0    40155.6505   586                   Cuts: 202    13352         
Repair heuristic found nothing.
      0    18    39921.6308   582                     Cuts: 6    13534         
Elapsed time = 8.73 sec. (4420.18 ticks, tree = 0.02 MB, solutions = 0)
    377   214    38840.2027   506                  39907.3073    15239         
    835   101    38846.1739   493                  39894.7534    14163         
   1312   438    39129.1961   502                  39894.7534    17147         
   1864  1284    38545.1918   464                  39894.7534    23502         
   2233  1949    38838.8989   450                  39894.7534    27731         
   2541  2329    38465.2784   462                  39894.7534    32948         
   2865  2265    38244.1757   459                  39894.7534    31851         
   3141  2738    38736.3447   468                  39894.7534    41873         
   3373  2922    38242.2875   458                  39894.7534    46368         
   4499  3680    37913.3469   479                  39894.7534    63575         
Elapsed time = 29.31 sec. (7525.75 ticks, tree = 43.54 MB, solutions = 0)
   5906  5023    37628.0457   474                  39894.7534    86217         
   7100  6196    37025.8692   468                  39894.7534   100764         
   8414  7567    25097.5675   484                  39894.7534   123146         
   9681  7956     3717.9556   491                  39894.7534   157343         
  10915  8749    -8924.6703   417                  39894.7534   208506         
  12192  9414    -9289.0749   416                  39894.7534   220993         
  13640 10463   -16215.9716   277                  39894.7534   237510         
  15103 11206    27340.5169   448                  39870.6442   247434         
  16210 13251    19964.7245   379                  39826.2016   306440         
  17306 14116    11525.4193   308                  39826.2016   341153         
Elapsed time = 94.86 sec. (17074.39 ticks, tree = 199.32 MB, solutions = 0)
  18583 14273    10039.6611   239                  39826.2016   345579         
  20025 14753     1942.0959   199                  39826.2016   361983         
  21271 16181    13964.6092   355                  39826.2016   396708         
  22243 17098    17290.5902   395                  39826.2016   420140         
  23278 18113     1510.4853   221                  39826.2016   457941         
  24559 19542      521.9911   220                  39826.2016   509366         
  25929 20813    16061.9406   343                  39826.2016   549398         
  27478 21408    20954.3913   401                  39826.2016   561613         
  28996 22842     9531.9212   255                  39826.2016   598150         
  30301 23432    17796.3161   355                  39826.2016   615309         
Elapsed time = 157.91 sec. (26618.88 ticks, tree = 509.31 MB, solutions = 0)
  31412 24348     5736.7745   276                  39826.2016   642790         
  32499 25657     4863.0223   245                  39826.2016   684723         
  33569 27478    22641.0788   356                  39826.2016   748698         
  34606 29573     6066.9285   274                  39826.2016   835423         
  35725 28187    10651.3132   318                  39826.2016   778579         
  36869 28054     6386.0057   280                  39826.2016   773246         
  38178 29959    18912.6291   408                  39826.2016   851436         
  39646 31236     7224.1398   316                  39826.2016   901724         
  41028 33455     1544.4533   338                  39826.2016   992684         
  42310 34046    20904.0953   380                  39826.2016  1014558         
Elapsed time = 219.81 sec. (36161.76 ticks, tree = 661.33 MB, solutions = 0)
  43654 33106    11578.6478   397                  39826.2016   974812         
  44788 34128    13545.1577   362                  39826.2016  1017482         
  45847 36485    17305.3187   390                  39826.2016  1116412         
  46936 36742    11206.8566   351                  39826.2016  1125359         
  48028 37533    15500.8056   366                  39826.2016  1152907         
  49091 40891    infeasible                        39826.2016  1302047         
  50196 40251    17365.2873   370                  39826.2016  1271418         
  51398 40794    infeasible                        39826.2016  1297757         
  52636 44620    17531.9278   390                  39826.2016  1471828         
  53827 43830    -7706.3695   329                  39826.2016  1430691         
Elapsed time = 279.88 sec. (45707.40 ticks, tree = 803.07 MB, solutions = 0)
  55129 43752    11101.5189   422                  39826.2016  1427360         
  56407 43989    -3959.3661   290                  39826.2016  1436642         
  57712 47270     1955.4357   286                  39826.2016  1609024         
  58980 46759     8261.5958   369                  39826.2016  1584156         
  60241 46822    -4837.7193   353                  39826.2016  1587578         
  61546 49278    13009.8027   366                  39826.2016  1690296         
  62791 49491    20620.6872   431                  39826.2016  1697419         
  63966 52687    14427.4543   385                  39826.2016  1835512         
  65115 52794    17112.1291   383                  39826.2016  1841908         
  66394 52749     3534.1782   376                  39826.2016  1837995         
Elapsed time = 339.75 sec. (55252.05 ticks, tree = 930.44 MB, solutions = 0)
  67609 53117    14590.5291   404                  39826.2016  1852835         
  68828 55191   -73356.8098   301                  39826.2016  1928791         
  70207 58551   -23025.1570   294                  39826.2016  2060485         
  71628 59576    14223.1809   396                  39826.2016  2110148         
  72890 59390    20499.3699   414                  39826.2016  2100668         
  74257 59016   -15990.1629   316                  39826.2016  2082060         
  75573 62873    17805.9049   391                  39826.2016  2249552         
  76715 61498    17963.3722   392                  39826.2016  2185807         
  77711 62892     4196.2397   372                  39826.2016  2251136         
  78469 63378      929.2591   377                  39826.2016  2279439         
Elapsed time = 378.47 sec. (64799.43 ticks, tree = 1083.18 MB, solutions = 0)

Cover cuts applied:  3
Implied bound cuts applied:  1
Flow cuts applied:  449
Mixed integer rounding cuts applied:  122
Zero-half cuts applied:  1

Root node processing (before b&c):
  Real time             =    5.22 sec. (4338.63 ticks)
Parallel b&c, 32 threads:
  Real time             =  374.13 sec. (60707.80 ticks)
  Sync time (average)   =    1.17 sec.
  Wait time (average)   =    0.00 sec.
                          ------------
Total (root+branch&cut) =  379.34 sec. (65046.43 ticks)


MIP - Deterministic time limit exceeded, no integer solution.
Current MIP best bound =  3.9826201620e+04 (gap is infinite)
Solution time =  379.39 sec.  Iterations = 2513119  Nodes = 78592 (68493)
Deterministic time = 65046.75 ticks  (171.45 ticks/sec)

CPLEX> CPLEX Error  1217: No solution exists.
No file written.
CPLEX> gap is infinite, so writing 0
Exporting results... 
